param n := 120;
param c := 1000;
param : V : p w :=
   0	 480	 470
   1	 264	 254
   2	 286	 276
   3	 403	 393
   4	 281	 271
   5	 346	 336
   6	 364	 354
   7	 292	 282
   8	 374	 364
   9	 376	 366
  10	 272	 262
  11	 382	 372
  12	 428	 418
  13	 275	 265
  14	 327	 317
  15	 452	 442
  16	 267	 257
  17	 311	 301
  18	 473	 463
  19	 262	 252
  20	 295	 285
  21	 457	 447
  22	 264	 254
  23	 309	 299
  24	 483	 473
  25	 260	 250
  26	 287	 277
  27	 422	 412
  28	 282	 272
  29	 326	 316
  30	 361	 351
  31	 263	 253
  32	 406	 396
  33	 425	 415
  34	 299	 289
  35	 306	 296
  36	 413	 403
  37	 278	 268
  38	 339	 329
  39	 391	 381
  40	 305	 295
  41	 334	 324
  42	 407	 397
  43	 309	 299
  44	 314	 304
  45	 509	 499
  46	 260	 250
  47	 261	 251
  48	 467	 457
  49	 265	 255
  50	 298	 288
  51	 447	 437
  52	 288	 278
  53	 295	 285
  54	 364	 354
  55	 308	 298
  56	 358	 348
  57	 422	 412
  58	 275	 265
  59	 333	 323
  60	 429	 419
  61	 287	 277
  62	 314	 304
  63	 481	 471
  64	 262	 252
  65	 287	 277
  66	 444	 434
  67	 289	 279
  68	 297	 287
  69	 364	 354
  70	 266	 256
  71	 400	 390
  72	 486	 476
  73	 265	 255
  74	 279	 269
  75	 490	 480
  76	 264	 254
  77	 276	 266
  78	 428	 418
  79	 264	 254
  80	 338	 328
  81	 379	 369
  82	 290	 280
  83	 361	 351
  84	 421	 411
  85	 275	 265
  86	 334	 324
  87	 442	 432
  88	 288	 278
  89	 300	 290
  90	 416	 406
  91	 283	 273
  92	 331	 321
  93	 449	 439
  94	 284	 274
  95	 297	 287
  96	 403	 393
  97	 271	 261
  98	 356	 346
  99	 454	 444
 100	 265	 255
 101	 311	 301
 102	 509	 499
 103	 260	 250
 104	 261	 251
 105	 449	 439
 106	 271	 261
 107	 310	 300
 108	 384	 374
 109	 316	 306
 110	 330	 320
 111	 477	 467
 112	 267	 257
 113	 286	 276
 114	 420	 410
 115	 284	 274
 116	 326	 316
 117	 415	 405
 118	 304	 294
 119	 311	 301
;

set E :=
   0	   2
   0	   4
   0	   7
   0	   8
   0	  13
   0	  14
   0	  17
   0	  22
   0	  25
   0	  27
   0	  29
   0	  30
   0	  31
   0	  32
   0	  34
   0	  36
   0	  40
   0	  43
   0	  44
   0	  45
   0	  49
   0	  50
   0	  54
   0	  55
   0	  57
   0	  58
   0	  59
   0	  61
   0	  62
   0	  63
   0	  66
   0	  67
   0	  69
   0	  70
   0	  73
   0	  75
   0	  77
   0	  79
   0	  81
   0	  82
   0	  83
   0	  84
   0	  92
   0	  93
   0	  97
   0	  98
   0	  99
   0	 101
   0	 102
   0	 103
   0	 104
   0	 117
   1	   4
   1	   8
   1	   9
   1	  10
   1	  11
   1	  14
   1	  21
   1	  22
   1	  24
   1	  26
   1	  27
   1	  35
   1	  36
   1	  44
   1	  45
   1	  50
   1	  51
   1	  52
   1	  55
   1	  57
   1	  58
   1	  61
   1	  63
   1	  68
   1	  70
   1	  72
   1	  79
   1	  81
   1	  82
   1	  83
   1	  89
   1	  91
   1	  95
   1	  97
   1	 101
   1	 103
   1	 104
   1	 106
   1	 111
   1	 112
   1	 116
   1	 119
   2	   8
   2	  11
   2	  16
   2	  17
   2	  22
   2	  23
   2	  24
   2	  26
   2	  29
   2	  31
   2	  36
   2	  39
   2	  42
   2	  43
   2	  46
   2	  52
   2	  56
   2	  59
   2	  62
   2	  64
   2	  67
   2	  72
   2	  74
   2	  77
   2	  80
   2	  81
   2	  82
   2	  84
   2	  85
   2	  86
   2	  87
   2	  88
   2	  93
   2	  97
   2	 100
   2	 102
   2	 105
   2	 106
   2	 108
   2	 109
   2	 110
   2	 112
   2	 113
   2	 115
   3	   4
   3	   5
   3	   6
   3	   8
   3	  10
   3	  12
   3	  17
   3	  19
   3	  20
   3	  23
   3	  24
   3	  26
   3	  27
   3	  29
   3	  34
   3	  35
   3	  37
   3	  38
   3	  39
   3	  43
   3	  44
   3	  50
   3	  51
   3	  52
   3	  54
   3	  56
   3	  59
   3	  60
   3	  64
   3	  67
   3	  68
   3	  69
   3	  71
   3	  74
   3	  86
   3	  91
   3	  92
   3	  95
   3	  96
   3	 101
   3	 103
   3	 107
   3	 109
   3	 110
   3	 115
   3	 116
   3	 117
   4	   6
   4	   7
   4	  10
   4	  13
   4	  14
   4	  17
   4	  19
   4	  21
   4	  22
   4	  26
   4	  29
   4	  31
   4	  34
   4	  36
   4	  41
   4	  42
   4	  45
   4	  46
   4	  47
   4	  51
   4	  52
   4	  54
   4	  57
   4	  62
   4	  63
   4	  64
   4	  66
   4	  68
   4	  70
   4	  72
   4	  73
   4	  74
   4	  75
   4	  77
   4	  79
   4	  81
   4	  82
   4	  86
   4	  87
   4	  91
   4	  92
   4	  98
   4	 100
   4	 101
   4	 103
   4	 104
   4	 105
   4	 107
   4	 108
   4	 109
   4	 115
   4	 119
   5	   9
   5	  11
   5	  13
   5	  14
   5	  18
   5	  21
   5	  22
   5	  23
   5	  24
   5	  25
   5	  26
   5	  27
   5	  28
   5	  32
   5	  34
   5	  35
   5	  40
   5	  41
   5	  45
   5	  46
   5	  48
   5	  49
   5	  50
   5	  51
   5	  52
   5	  53
   5	  55
   5	  61
   5	  69
   5	  73
   5	  79
   5	  81
   5	  82
   5	  87
   5	  88
   5	  89
   5	  90
   5	  91
   5	  93
   5	  96
   5	  98
   5	  99
   5	 100
   5	 102
   5	 106
   5	 107
   5	 108
   5	 110
   5	 113
   5	 114
   5	 116
   5	 117
   5	 118
   6	   8
   6	  12
   6	  14
   6	  16
   6	  17
   6	  19
   6	  20
   6	  21
   6	  22
   6	  23
   6	  26
   6	  29
   6	  30
   6	  31
   6	  32
   6	  33
   6	  34
   6	  36
   6	  37
   6	  47
   6	  48
   6	  50
   6	  51
   6	  53
   6	  55
   6	  56
   6	  58
   6	  59
   6	  62
   6	  63
   6	  64
   6	  67
   6	  70
   6	  75
   6	  76
   6	  82
   6	  83
   6	  86
   6	  89
   6	  92
   6	  94
   6	  95
   6	  99
   6	 102
   6	 103
   6	 104
   6	 111
   6	 118
   6	 119
   7	  11
   7	  13
   7	  17
   7	  18
   7	  19
   7	  20
   7	  21
   7	  24
   7	  34
   7	  37
   7	  38
   7	  40
   7	  41
   7	  43
   7	  47
   7	  48
   7	  49
   7	  50
   7	  52
   7	  55
   7	  57
   7	  59
   7	  63
   7	  65
   7	  66
   7	  71
   7	  72
   7	  74
   7	  76
   7	  77
   7	  78
   7	  79
   7	  80
   7	  82
   7	  85
   7	  86
   7	  88
   7	  93
   7	  94
   7	  95
   7	  96
   7	 100
   7	 101
   7	 104
   7	 106
   7	 108
   7	 109
   7	 114
   7	 116
   7	 117
   7	 119
   8	  14
   8	  15
   8	  17
   8	  19
   8	  20
   8	  21
   8	  25
   8	  26
   8	  28
   8	  30
   8	  31
   8	  36
   8	  38
   8	  40
   8	  44
   8	  50
   8	  51
   8	  53
   8	  54
   8	  55
   8	  57
   8	  60
   8	  61
   8	  63
   8	  64
   8	  65
   8	  66
   8	  68
   8	  76
   8	  77
   8	  84
   8	  86
   8	  87
   8	  88
   8	  89
   8	  93
   8	  96
   8	  98
   8	  99
   8	 100
   8	 101
   8	 102
   8	 105
   8	 106
   8	 112
   8	 116
   9	  12
   9	  13
   9	  16
   9	  17
   9	  18
   9	  21
   9	  30
   9	  33
   9	  37
   9	  38
   9	  40
   9	  41
   9	  48
   9	  50
   9	  56
   9	  57
   9	  60
   9	  62
   9	  71
   9	  74
   9	  76
   9	  77
   9	  78
   9	  79
   9	  81
   9	  83
   9	  89
   9	  91
   9	  92
   9	  93
   9	  94
   9	  95
   9	  96
   9	 103
   9	 106
   9	 107
   9	 108
   9	 109
   9	 110
   9	 112
   9	 113
   9	 114
   9	 117
   9	 118
   9	 119
  10	  12
  10	  13
  10	  16
  10	  20
  10	  22
  10	  23
  10	  24
  10	  26
  10	  28
  10	  33
  10	  42
  10	  53
  10	  55
  10	  59
  10	  62
  10	  63
  10	  71
  10	  74
  10	  77
  10	  78
  10	  82
  10	  83
  10	  84
  10	  91
  10	  94
  10	  96
  10	  97
  10	 104
  10	 105
  10	 106
  10	 112
  10	 115
  10	 116
  11	  12
  11	  13
  11	  17
  11	  20
  11	  22
  11	  25
  11	  26
  11	  34
  11	  37
  11	  38
  11	  39
  11	  43
  11	  46
  11	  51
  11	  55
  11	  57
  11	  58
  11	  60
  11	  63
  11	  68
  11	  70
  11	  73
  11	  76
  11	  78
  11	  79
  11	  82
  11	  84
  11	  85
  11	  87
  11	  88
  11	  90
  11	  91
  11	  92
  11	  96
  11	  97
  11	  98
  11	 100
  11	 105
  11	 106
  11	 112
  11	 117
  11	 118
  12	  14
  12	  19
  12	  25
  12	  26
  12	  32
  12	  34
  12	  35
  12	  38
  12	  39
  12	  40
  12	  41
  12	  43
  12	  45
  12	  46
  12	  47
  12	  49
  12	  52
  12	  56
  12	  57
  12	  58
  12	  59
  12	  60
  12	  63
  12	  67
  12	  69
  12	  70
  12	  74
  12	  76
  12	  78
  12	  84
  12	  90
  12	  94
  12	  96
  12	  98
  12	 102
  12	 105
  12	 111
  12	 115
  12	 118
  13	  14
  13	  16
  13	  21
  13	  26
  13	  29
  13	  30
  13	  31
  13	  34
  13	  36
  13	  38
  13	  39
  13	  44
  13	  48
  13	  51
  13	  55
  13	  57
  13	  61
  13	  62
  13	  64
  13	  65
  13	  68
  13	  72
  13	  77
  13	  79
  13	  80
  13	  83
  13	  84
  13	  85
  13	  86
  13	  97
  13	  98
  13	 101
  13	 103
  13	 105
  13	 106
  13	 110
  13	 113
  13	 115
  14	  15
  14	  20
  14	  21
  14	  26
  14	  34
  14	  35
  14	  36
  14	  37
  14	  38
  14	  41
  14	  42
  14	  43
  14	  48
  14	  53
  14	  55
  14	  60
  14	  61
  14	  64
  14	  65
  14	  66
  14	  68
  14	  69
  14	  70
  14	  71
  14	  72
  14	  74
  14	  77
  14	  79
  14	  81
  14	  86
  14	  89
  14	  91
  14	  94
  14	  99
  14	 100
  14	 101
  14	 102
  14	 103
  14	 106
  14	 109
  14	 110
  14	 111
  14	 112
  14	 116
  14	 117
  14	 119
  15	  18
  15	  19
  15	  20
  15	  24
  15	  26
  15	  28
  15	  29
  15	  30
  15	  31
  15	  32
  15	  35
  15	  36
  15	  37
  15	  39
  15	  40
  15	  42
  15	  46
  15	  47
  15	  49
  15	  50
  15	  55
  15	  57
  15	  58
  15	  62
  15	  68
  15	  69
  15	  70
  15	  73
  15	  75
  15	  76
  15	  78
  15	  82
  15	  84
  15	  86
  15	  90
  15	  93
  15	 100
  15	 101
  15	 102
  15	 103
  15	 105
  15	 112
  15	 113
  15	 114
  15	 115
  15	 116
  15	 117
  15	 119
  16	  17
  16	  20
  16	  23
  16	  29
  16	  33
  16	  36
  16	  38
  16	  39
  16	  41
  16	  42
  16	  45
  16	  46
  16	  48
  16	  51
  16	  52
  16	  55
  16	  57
  16	  61
  16	  62
  16	  65
  16	  67
  16	  68
  16	  69
  16	  71
  16	  72
  16	  74
  16	  76
  16	  78
  16	  79
  16	  83
  16	  86
  16	  87
  16	  89
  16	  92
  16	  95
  16	  97
  16	  98
  16	 101
  16	 102
  16	 105
  16	 106
  16	 109
  16	 118
  16	 119
  17	  19
  17	  29
  17	  30
  17	  32
  17	  37
  17	  47
  17	  48
  17	  49
  17	  50
  17	  51
  17	  54
  17	  55
  17	  57
  17	  58
  17	  59
  17	  63
  17	  64
  17	  69
  17	  71
  17	  72
  17	  74
  17	  78
  17	  81
  17	  82
  17	  85
  17	  88
  17	  91
  17	  93
  17	  98
  17	 102
  17	 103
  17	 105
  17	 109
  17	 112
  17	 114
  17	 117
  18	  26
  18	  27
  18	  28
  18	  29
  18	  32
  18	  33
  18	  36
  18	  37
  18	  45
  18	  46
  18	  53
  18	  54
  18	  57
  18	  58
  18	  59
  18	  63
  18	  64
  18	  65
  18	  66
  18	  67
  18	  68
  18	  69
  18	  73
  18	  74
  18	  78
  18	  79
  18	  80
  18	  81
  18	  82
  18	  87
  18	  88
  18	  91
  18	  92
  18	  93
  18	  96
  18	  99
  18	 100
  18	 103
  18	 105
  18	 106
  18	 111
  18	 114
  18	 119
  19	  20
  19	  22
  19	  23
  19	  28
  19	  32
  19	  34
  19	  39
  19	  40
  19	  41
  19	  45
  19	  50
  19	  51
  19	  55
  19	  56
  19	  57
  19	  59
  19	  65
  19	  68
  19	  72
  19	  75
  19	  78
  19	  79
  19	  81
  19	  84
  19	  86
  19	  87
  19	  90
  19	  91
  19	  92
  19	  93
  19	  97
  19	 101
  19	 102
  19	 105
  19	 106
  19	 107
  19	 110
  19	 111
  19	 112
  19	 114
  19	 119
  20	  21
  20	  26
  20	  27
  20	  34
  20	  46
  20	  48
  20	  51
  20	  53
  20	  54
  20	  57
  20	  58
  20	  65
  20	  75
  20	  78
  20	  79
  20	  80
  20	  82
  20	  86
  20	  88
  20	  92
  20	  93
  20	  95
  20	  97
  20	  99
  20	 101
  20	 102
  20	 106
  20	 108
  20	 114
  20	 118
  20	 119
  21	  30
  21	  32
  21	  33
  21	  35
  21	  36
  21	  39
  21	  42
  21	  45
  21	  48
  21	  49
  21	  54
  21	  55
  21	  59
  21	  61
  21	  65
  21	  66
  21	  67
  21	  72
  21	  73
  21	  86
  21	  87
  21	  89
  21	  91
  21	  98
  21	 101
  21	 103
  21	 111
  21	 114
  21	 116
  21	 117
  21	 118
  22	  23
  22	  26
  22	  28
  22	  38
  22	  39
  22	  42
  22	  43
  22	  45
  22	  46
  22	  48
  22	  49
  22	  50
  22	  52
  22	  58
  22	  61
  22	  62
  22	  63
  22	  69
  22	  71
  22	  75
  22	  77
  22	  81
  22	  84
  22	  88
  22	  90
  22	  91
  22	  92
  22	  93
  22	  95
  22	  96
  22	  99
  22	 109
  22	 110
  22	 116
  22	 118
  22	 119
  23	  24
  23	  25
  23	  26
  23	  29
  23	  30
  23	  31
  23	  33
  23	  38
  23	  39
  23	  42
  23	  43
  23	  44
  23	  53
  23	  54
  23	  57
  23	  59
  23	  64
  23	  68
  23	  69
  23	  71
  23	  75
  23	  77
  23	  82
  23	  84
  23	  88
  23	  89
  23	  91
  23	  94
  23	  96
  23	  98
  23	 100
  23	 101
  23	 105
  23	 106
  23	 107
  23	 108
  23	 111
  23	 115
  23	 116
  23	 118
  24	  27
  24	  28
  24	  30
  24	  31
  24	  33
  24	  35
  24	  37
  24	  42
  24	  45
  24	  47
  24	  49
  24	  50
  24	  54
  24	  58
  24	  62
  24	  63
  24	  64
  24	  72
  24	  74
  24	  75
  24	  78
  24	  82
  24	  83
  24	  87
  24	  90
  24	  93
  24	  94
  24	  95
  24	  96
  24	  99
  24	 100
  24	 101
  24	 102
  24	 104
  24	 105
  24	 108
  24	 109
  24	 111
  24	 112
  24	 113
  24	 115
  24	 116
  24	 118
  24	 119
  25	  28
  25	  32
  25	  33
  25	  35
  25	  38
  25	  42
  25	  43
  25	  44
  25	  46
  25	  47
  25	  48
  25	  49
  25	  51
  25	  52
  25	  54
  25	  57
  25	  58
  25	  59
  25	  65
  25	  66
  25	  74
  25	  75
  25	  76
  25	  80
  25	  82
  25	  83
  25	  84
  25	  85
  25	  87
  25	  88
  25	  93
  25	  98
  25	  99
  25	 101
  25	 102
  25	 103
  25	 104
  25	 105
  25	 106
  25	 107
  25	 108
  25	 111
  25	 112
  25	 115
  25	 118
  25	 119
  26	  27
  26	  31
  26	  34
  26	  36
  26	  37
  26	  42
  26	  45
  26	  46
  26	  48
  26	  50
  26	  51
  26	  54
  26	  55
  26	  56
  26	  62
  26	  65
  26	  70
  26	  71
  26	  72
  26	  77
  26	  78
  26	  79
  26	  80
  26	  85
  26	  88
  26	  89
  26	  90
  26	  94
  26	  95
  26	  98
  26	 102
  26	 103
  26	 106
  26	 107
  26	 108
  26	 110
  26	 111
  26	 112
  26	 113
  26	 114
  26	 115
  27	  28
  27	  36
  27	  47
  27	  48
  27	  49
  27	  53
  27	  62
  27	  65
  27	  67
  27	  72
  27	  73
  27	  74
  27	  75
  27	  76
  27	  78
  27	  84
  27	  85
  27	  87
  27	  89
  27	  90
  27	  97
  27	 100
  27	 105
  27	 107
  27	 108
  27	 109
  27	 110
  27	 111
  27	 112
  27	 113
  27	 117
  27	 119
  28	  32
  28	  35
  28	  36
  28	  37
  28	  38
  28	  40
  28	  44
  28	  45
  28	  46
  28	  48
  28	  49
  28	  50
  28	  52
  28	  58
  28	  59
  28	  60
  28	  61
  28	  62
  28	  65
  28	  67
  28	  69
  28	  72
  28	  73
  28	  76
  28	  78
  28	  81
  28	  84
  28	  85
  28	  90
  28	  91
  28	  92
  28	  93
  28	  95
  28	  97
  28	 103
  28	 106
  28	 107
  28	 108
  28	 109
  28	 110
  28	 112
  28	 113
  28	 115
  29	  31
  29	  32
  29	  38
  29	  40
  29	  42
  29	  44
  29	  50
  29	  55
  29	  58
  29	  59
  29	  60
  29	  62
  29	  65
  29	  68
  29	  69
  29	  70
  29	  71
  29	  72
  29	  73
  29	  75
  29	  76
  29	  82
  29	  85
  29	  86
  29	  88
  29	  89
  29	  91
  29	  92
  29	  99
  29	 100
  29	 101
  29	 102
  29	 106
  29	 107
  29	 111
  30	  31
  30	  36
  30	  39
  30	  40
  30	  41
  30	  45
  30	  46
  30	  47
  30	  48
  30	  50
  30	  51
  30	  53
  30	  54
  30	  60
  30	  63
  30	  66
  30	  69
  30	  72
  30	  73
  30	  76
  30	  77
  30	  78
  30	  79
  30	  80
  30	  81
  30	  82
  30	  84
  30	  86
  30	  87
  30	  89
  30	  91
  30	  95
  30	  96
  30	  98
  30	 101
  30	 102
  30	 103
  30	 105
  30	 108
  30	 109
  30	 111
  30	 113
  30	 119
  31	  35
  31	  36
  31	  37
  31	  40
  31	  42
  31	  43
  31	  46
  31	  47
  31	  52
  31	  53
  31	  54
  31	  55
  31	  57
  31	  59
  31	  60
  31	  63
  31	  64
  31	  67
  31	  70
  31	  74
  31	  77
  31	  80
  31	  81
  31	  82
  31	  84
  31	  86
  31	  87
  31	  88
  31	  93
  31	  95
  31	  99
  31	 100
  31	 103
  31	 105
  31	 107
  31	 108
  31	 109
  31	 110
  31	 112
  31	 113
  31	 114
  31	 116
  31	 117
  32	  34
  32	  35
  32	  37
  32	  38
  32	  39
  32	  40
  32	  41
  32	  44
  32	  45
  32	  48
  32	  50
  32	  51
  32	  52
  32	  55
  32	  56
  32	  57
  32	  58
  32	  60
  32	  61
  32	  65
  32	  67
  32	  68
  32	  70
  32	  72
  32	  79
  32	  81
  32	  83
  32	  84
  32	  85
  32	  86
  32	  87
  32	  90
  32	  91
  32	  97
  32	  99
  32	 101
  32	 104
  32	 105
  32	 107
  32	 110
  32	 111
  32	 112
  32	 114
  32	 115
  32	 116
  32	 117
  32	 118
  32	 119
  33	  41
  33	  42
  33	  45
  33	  46
  33	  52
  33	  53
  33	  55
  33	  57
  33	  60
  33	  68
  33	  69
  33	  70
  33	  71
  33	  75
  33	  76
  33	  82
  33	  87
  33	  91
  33	  93
  33	  99
  33	 102
  33	 103
  33	 104
  33	 109
  33	 111
  33	 116
  33	 117
  33	 118
  34	  35
  34	  38
  34	  39
  34	  45
  34	  48
  34	  52
  34	  54
  34	  57
  34	  59
  34	  63
  34	  64
  34	  66
  34	  72
  34	  74
  34	  75
  34	  76
  34	  80
  34	  81
  34	  85
  34	  90
  34	  91
  34	  93
  34	  94
  34	  99
  34	 105
  34	 106
  34	 112
  34	 113
  34	 115
  34	 119
  35	  36
  35	  37
  35	  38
  35	  42
  35	  44
  35	  53
  35	  54
  35	  55
  35	  57
  35	  58
  35	  59
  35	  62
  35	  64
  35	  66
  35	  69
  35	  70
  35	  72
  35	  74
  35	  79
  35	  85
  35	  86
  35	  95
  35	  96
  35	 100
  35	 102
  35	 106
  35	 111
  35	 114
  35	 115
  35	 116
  36	  38
  36	  39
  36	  41
  36	  43
  36	  45
  36	  47
  36	  48
  36	  49
  36	  52
  36	  53
  36	  57
  36	  59
  36	  60
  36	  61
  36	  62
  36	  66
  36	  67
  36	  69
  36	  71
  36	  72
  36	  74
  36	  75
  36	  76
  36	  77
  36	  78
  36	  82
  36	  83
  36	  85
  36	  86
  36	  91
  36	  92
  36	 100
  36	 101
  36	 102
  36	 103
  36	 105
  36	 107
  36	 109
  36	 111
  36	 113
  36	 114
  36	 116
  36	 117
  36	 118
  37	  40
  37	  42
  37	  46
  37	  50
  37	  54
  37	  56
  37	  58
  37	  59
  37	  60
  37	  61
  37	  65
  37	  66
  37	  68
  37	  70
  37	  71
  37	  72
  37	  77
  37	  81
  37	  82
  37	  84
  37	  85
  37	  87
  37	  91
  37	  95
  37	  96
  37	  98
  37	  99
  37	 103
  37	 104
  37	 106
  37	 107
  37	 108
  37	 110
  37	 115
  37	 117
  37	 118
  38	  42
  38	  43
  38	  47
  38	  48
  38	  50
  38	  52
  38	  57
  38	  61
  38	  62
  38	  68
  38	  69
  38	  70
  38	  71
  38	  73
  38	  76
  38	  79
  38	  81
  38	  82
  38	  89
  38	  90
  38	  93
  38	  95
  38	  96
  38	 103
  38	 108
  38	 109
  38	 110
  39	  42
  39	  47
  39	  48
  39	  50
  39	  52
  39	  53
  39	  54
  39	  55
  39	  57
  39	  60
  39	  64
  39	  65
  39	  66
  39	  68
  39	  72
  39	  76
  39	  77
  39	  80
  39	  82
  39	  85
  39	  88
  39	  89
  39	  90
  39	  91
  39	  92
  39	  93
  39	  94
  39	  97
  39	 101
  39	 102
  39	 105
  39	 107
  39	 109
  39	 110
  39	 112
  39	 113
  39	 114
  39	 115
  40	  41
  40	  44
  40	  46
  40	  47
  40	  55
  40	  56
  40	  59
  40	  62
  40	  63
  40	  64
  40	  66
  40	  67
  40	  69
  40	  72
  40	  75
  40	  79
  40	  82
  40	  86
  40	  89
  40	  91
  40	  94
  40	  95
  40	 100
  40	 103
  40	 109
  40	 114
  40	 116
  40	 118
  40	 119
  41	  44
  41	  45
  41	  46
  41	  47
  41	  49
  41	  50
  41	  52
  41	  53
  41	  55
  41	  56
  41	  58
  41	  64
  41	  68
  41	  72
  41	  74
  41	  75
  41	  78
  41	  81
  41	  83
  41	  86
  41	  89
  41	  91
  41	  93
  41	  95
  41	  96
  41	  98
  41	  99
  41	 101
  41	 104
  41	 105
  41	 107
  41	 110
  41	 111
  41	 112
  41	 113
  41	 116
  42	  45
  42	  54
  42	  58
  42	  62
  42	  64
  42	  68
  42	  72
  42	  74
  42	  76
  42	  77
  42	  81
  42	  88
  42	  90
  42	  94
  42	  97
  42	 100
  42	 101
  42	 102
  42	 105
  42	 108
  42	 109
  42	 113
  42	 119
  43	  45
  43	  47
  43	  48
  43	  55
  43	  61
  43	  68
  43	  70
  43	  74
  43	  77
  43	  80
  43	  82
  43	  83
  43	  84
  43	  85
  43	  86
  43	  89
  43	  91
  43	  93
  43	  94
  43	 100
  43	 104
  43	 105
  43	 108
  43	 109
  43	 110
  43	 111
  43	 114
  43	 116
  43	 118
  44	  50
  44	  52
  44	  55
  44	  57
  44	  62
  44	  63
  44	  64
  44	  74
  44	  75
  44	  78
  44	  84
  44	  85
  44	  89
  44	  95
  44	  97
  44	 100
  44	 101
  44	 104
  44	 106
  44	 107
  44	 112
  44	 118
  44	 119
  45	  46
  45	  48
  45	  49
  45	  50
  45	  51
  45	  55
  45	  57
  45	  62
  45	  66
  45	  68
  45	  69
  45	  74
  45	  78
  45	  79
  45	  82
  45	  83
  45	  84
  45	  87
  45	  90
  45	  91
  45	  94
  45	 101
  45	 103
  45	 109
  45	 111
  45	 112
  45	 114
  45	 115
  45	 117
  45	 118
  46	  49
  46	  50
  46	  51
  46	  59
  46	  64
  46	  66
  46	  67
  46	  69
  46	  70
  46	  74
  46	  80
  46	  84
  46	  88
  46	  90
  46	  96
  46	  99
  46	 100
  46	 102
  46	 105
  46	 106
  46	 109
  46	 111
  46	 114
  46	 118
  47	  48
  47	  50
  47	  55
  47	  58
  47	  60
  47	  61
  47	  65
  47	  67
  47	  69
  47	  71
  47	  73
  47	  77
  47	  78
  47	  81
  47	  83
  47	  85
  47	  88
  47	  91
  47	  92
  47	  93
  47	  94
  47	  95
  47	  99
  47	 100
  47	 102
  47	 104
  47	 105
  47	 108
  47	 110
  47	 111
  47	 115
  47	 118
  47	 119
  48	  49
  48	  51
  48	  54
  48	  55
  48	  56
  48	  58
  48	  62
  48	  63
  48	  65
  48	  69
  48	  70
  48	  71
  48	  72
  48	  77
  48	  78
  48	  80
  48	  81
  48	  87
  48	  91
  48	  92
  48	  97
  48	  99
  48	 101
  48	 106
  48	 108
  48	 110
  48	 112
  48	 113
  48	 114
  48	 115
  48	 116
  48	 119
  49	  54
  49	  57
  49	  62
  49	  65
  49	  68
  49	  75
  49	  77
  49	  83
  49	  86
  49	  87
  49	  89
  49	  90
  49	  91
  49	  95
  49	  96
  49	 105
  49	 107
  49	 109
  49	 110
  49	 112
  49	 115
  49	 117
  50	  52
  50	  53
  50	  55
  50	  57
  50	  59
  50	  60
  50	  63
  50	  64
  50	  69
  50	  73
  50	  74
  50	  75
  50	  77
  50	  78
  50	  82
  50	  86
  50	  87
  50	  88
  50	  89
  50	  91
  50	  92
  50	  94
  50	  96
  50	  98
  50	 101
  50	 103
  50	 104
  50	 106
  50	 107
  50	 108
  50	 109
  50	 119
  51	  53
  51	  54
  51	  55
  51	  56
  51	  58
  51	  61
  51	  63
  51	  64
  51	  65
  51	  66
  51	  67
  51	  70
  51	  71
  51	  72
  51	  75
  51	  78
  51	  79
  51	  82
  51	  83
  51	  86
  51	  90
  51	  92
  51	  93
  51	  94
  51	 101
  51	 102
  51	 104
  51	 107
  51	 108
  51	 111
  51	 114
  51	 115
  51	 117
  51	 118
  51	 119
  52	  55
  52	  58
  52	  60
  52	  62
  52	  66
  52	  68
  52	  69
  52	  71
  52	  72
  52	  74
  52	  78
  52	  79
  52	  80
  52	  81
  52	  82
  52	  84
  52	  87
  52	  90
  52	  92
  52	  93
  52	  94
  52	  97
  52	 100
  52	 103
  52	 105
  52	 106
  52	 109
  52	 114
  52	 118
  53	  55
  53	  61
  53	  62
  53	  64
  53	  66
  53	  67
  53	  68
  53	  72
  53	  73
  53	  75
  53	  77
  53	  79
  53	  84
  53	  85
  53	  87
  53	  89
  53	  91
  53	  93
  53	  98
  53	 101
  53	 105
  53	 107
  53	 108
  53	 111
  53	 119
  54	  55
  54	  58
  54	  67
  54	  68
  54	  69
  54	  70
  54	  71
  54	  76
  54	  77
  54	  78
  54	  79
  54	  84
  54	  86
  54	  93
  54	  97
  54	 105
  54	 107
  54	 108
  54	 114
  54	 115
  54	 119
  55	  56
  55	  58
  55	  62
  55	  63
  55	  64
  55	  66
  55	  67
  55	  68
  55	  71
  55	  74
  55	  77
  55	  78
  55	  82
  55	  83
  55	  85
  55	  87
  55	  88
  55	  89
  55	  92
  55	  93
  55	 100
  55	 103
  55	 106
  55	 107
  55	 109
  55	 112
  55	 117
  55	 118
  55	 119
  56	  57
  56	  59
  56	  60
  56	  62
  56	  64
  56	  66
  56	  68
  56	  69
  56	  70
  56	  71
  56	  73
  56	  77
  56	  78
  56	  79
  56	  80
  56	  82
  56	  84
  56	  92
  56	  97
  56	 101
  56	 102
  56	 103
  56	 105
  56	 107
  56	 108
  56	 109
  56	 112
  56	 115
  56	 118
  57	  66
  57	  67
  57	  69
  57	  70
  57	  71
  57	  76
  57	  77
  57	  79
  57	  86
  57	  88
  57	  91
  57	  92
  57	  93
  57	  98
  57	 109
  57	 112
  57	 116
  57	 117
  58	  60
  58	  61
  58	  63
  58	  64
  58	  67
  58	  68
  58	  69
  58	  73
  58	  77
  58	  79
  58	  84
  58	  85
  58	  87
  58	  88
  58	  92
  58	  94
  58	  98
  58	  99
  58	 100
  58	 104
  58	 105
  58	 107
  58	 108
  58	 111
  58	 112
  59	  62
  59	  63
  59	  65
  59	  68
  59	  69
  59	  70
  59	  71
  59	  72
  59	  73
  59	  74
  59	  75
  59	  78
  59	  79
  59	  87
  59	  88
  59	  89
  59	  90
  59	  94
  59	  95
  59	  97
  59	 101
  59	 103
  59	 105
  59	 106
  59	 110
  59	 115
  59	 117
  60	  63
  60	  64
  60	  68
  60	  69
  60	  74
  60	  75
  60	  76
  60	  78
  60	  85
  60	  91
  60	  97
  60	 101
  60	 102
  60	 104
  60	 106
  60	 107
  60	 109
  60	 111
  60	 114
  60	 115
  60	 117
  60	 118
  60	 119
  61	  64
  61	  65
  61	  69
  61	  70
  61	  72
  61	  75
  61	  76
  61	  79
  61	  83
  61	  84
  61	  85
  61	  86
  61	  90
  61	  92
  61	  95
  61	  96
  61	 100
  61	 103
  61	 104
  61	 106
  61	 108
  61	 109
  61	 112
  61	 116
  62	  64
  62	  65
  62	  66
  62	  67
  62	  68
  62	  72
  62	  73
  62	  74
  62	  76
  62	  79
  62	  80
  62	  81
  62	  83
  62	  89
  62	  93
  62	  94
  62	  95
  62	  97
  62	  98
  62	 103
  62	 104
  62	 105
  62	 107
  62	 108
  62	 109
  62	 111
  62	 115
  63	  64
  63	  66
  63	  72
  63	  74
  63	  75
  63	  76
  63	  78
  63	  80
  63	  82
  63	  88
  63	  92
  63	  95
  63	  96
  63	  98
  63	 100
  63	 104
  63	 106
  63	 107
  63	 108
  63	 111
  63	 112
  63	 114
  63	 118
  63	 119
  64	  65
  64	  66
  64	  72
  64	  74
  64	  75
  64	  77
  64	  89
  64	  90
  64	  95
  64	  99
  64	 101
  64	 104
  64	 105
  64	 111
  64	 112
  64	 115
  64	 117
  64	 118
  65	  70
  65	  72
  65	  73
  65	  74
  65	  80
  65	  84
  65	  85
  65	  86
  65	  87
  65	  88
  65	  89
  65	  91
  65	  92
  65	  94
  65	  96
  65	  97
  65	 102
  65	 103
  65	 104
  65	 105
  65	 107
  65	 111
  65	 112
  65	 113
  65	 115
  65	 119
  66	  69
  66	  73
  66	  81
  66	  86
  66	  88
  66	  89
  66	  90
  66	  92
  66	  95
  66	  96
  66	  98
  66	 103
  66	 104
  66	 106
  66	 107
  66	 108
  66	 109
  66	 111
  66	 112
  66	 115
  67	  68
  67	  70
  67	  71
  67	  75
  67	  76
  67	  80
  67	  81
  67	  88
  67	  91
  67	  95
  67	  96
  67	 106
  67	 108
  67	 110
  67	 112
  67	 113
  67	 114
  67	 116
  67	 118
  67	 119
  68	  69
  68	  71
  68	  72
  68	  74
  68	  81
  68	  82
  68	  84
  68	  85
  68	  87
  68	  89
  68	  90
  68	  91
  68	  93
  68	  96
  68	  97
  68	  98
  68	 105
  68	 108
  68	 109
  68	 111
  68	 118
  69	  71
  69	  72
  69	  75
  69	  78
  69	  79
  69	  81
  69	  83
  69	  90
  69	  91
  69	  92
  69	  93
  69	  94
  69	 100
  69	 104
  69	 106
  69	 108
  69	 109
  69	 110
  69	 114
  69	 117
  69	 119
  70	  75
  70	  77
  70	  80
  70	  81
  70	  82
  70	  88
  70	  95
  70	  98
  70	 101
  70	 103
  70	 105
  70	 106
  70	 107
  70	 110
  70	 111
  70	 113
  70	 114
  70	 119
  71	  72
  71	  73
  71	  74
  71	  78
  71	  79
  71	  80
  71	  81
  71	  83
  71	  85
  71	  89
  71	  92
  71	  93
  71	  97
  71	  98
  71	  99
  71	 100
  71	 102
  71	 103
  71	 104
  71	 112
  71	 113
  72	  76
  72	  82
  72	  83
  72	  84
  72	  86
  72	  90
  72	  92
  72	  96
  72	  97
  72	  98
  72	  99
  72	 104
  72	 105
  72	 107
  72	 108
  72	 109
  72	 112
  72	 115
  72	 116
  72	 117
  72	 119
  73	  74
  73	  78
  73	  80
  73	  81
  73	  83
  73	  87
  73	  89
  73	  96
  73	  97
  73	  98
  73	  99
  73	 103
  73	 105
  73	 107
  73	 112
  73	 115
  73	 116
  73	 118
  73	 119
  74	  76
  74	  78
  74	  80
  74	  83
  74	  85
  74	  87
  74	  93
  74	  95
  74	  98
  74	  99
  74	 101
  74	 102
  74	 109
  74	 110
  74	 115
  74	 118
  74	 119
  75	  76
  75	  79
  75	  81
  75	  83
  75	  85
  75	  87
  75	  88
  75	  91
  75	  98
  75	  99
  75	 103
  75	 105
  75	 110
  75	 113
  75	 116
  75	 119
  76	  77
  76	  84
  76	  85
  76	  92
  76	  98
  76	 103
  76	 104
  76	 105
  76	 107
  76	 109
  76	 110
  76	 111
  76	 116
  77	  78
  77	  83
  77	  84
  77	  88
  77	  89
  77	  91
  77	  94
  77	  98
  77	 100
  77	 103
  77	 106
  77	 111
  77	 114
  77	 115
  78	  79
  78	  80
  78	  91
  78	  92
  78	  94
  78	  96
  78	 101
  78	 103
  78	 104
  78	 111
  78	 114
  78	 115
  78	 117
  79	  80
  79	  82
  79	  83
  79	  84
  79	  85
  79	  86
  79	  88
  79	  90
  79	  92
  79	  94
  79	  96
  79	  97
  79	 101
  79	 106
  79	 108
  79	 114
  79	 118
  80	  84
  80	  85
  80	  87
  80	  90
  80	  92
  80	  96
  80	  98
  80	  99
  80	 101
  80	 102
  80	 106
  80	 109
  80	 110
  80	 111
  80	 113
  80	 115
  81	  87
  81	  89
  81	  90
  81	  91
  81	  92
  81	  96
  81	 103
  81	 105
  81	 108
  81	 111
  81	 114
  81	 116
  81	 118
  81	 119
  82	  83
  82	  84
  82	  86
  82	  89
  82	  92
  82	  95
  82	  97
  82	 103
  82	 104
  82	 112
  82	 115
  82	 116
  82	 117
  83	  89
  83	  90
  83	  93
  83	  95
  83	  98
  83	  99
  83	 100
  83	 102
  83	 104
  83	 105
  83	 106
  83	 109
  83	 111
  83	 112
  83	 119
  84	  85
  84	  88
  84	  89
  84	  90
  84	  92
  84	  97
  84	  98
  84	  99
  84	 100
  84	 106
  84	 109
  84	 111
  84	 113
  84	 116
  84	 118
  84	 119
  85	  86
  85	  87
  85	  88
  85	  99
  85	 100
  85	 101
  85	 102
  85	 107
  85	 109
  85	 110
  85	 111
  85	 113
  85	 114
  85	 115
  85	 116
  85	 117
  85	 118
  86	  87
  86	  90
  86	  92
  86	  96
  86	 100
  86	 101
  86	 103
  86	 106
  86	 109
  86	 110
  86	 112
  86	 113
  86	 117
  86	 118
  87	  88
  87	  89
  87	  91
  87	  97
  87	 104
  87	 105
  87	 108
  87	 110
  87	 112
  87	 114
  87	 117
  88	  94
  88	  96
  88	  99
  88	 101
  88	 103
  88	 106
  88	 111
  88	 114
  88	 117
  89	  91
  89	  95
  89	  97
  89	  98
  89	 100
  89	 104
  89	 106
  89	 108
  89	 111
  89	 113
  89	 115
  90	  91
  90	  92
  90	  95
  90	  96
  90	  99
  90	 100
  90	 107
  90	 109
  90	 112
  90	 114
  90	 119
  91	  92
  91	  93
  91	  94
  91	  97
  91	 101
  91	 105
  91	 110
  91	 114
  91	 115
  91	 116
  91	 118
  91	 119
  92	  94
  92	  99
  92	 105
  92	 110
  92	 111
  92	 112
  92	 113
  92	 115
  92	 116
  92	 118
  93	  98
  93	 101
  93	 102
  93	 110
  93	 112
  93	 113
  94	  95
  94	  96
  94	  98
  94	  99
  94	 101
  94	 102
  94	 103
  94	 109
  94	 110
  94	 116
  94	 117
  94	 119
  95	  97
  95	  98
  95	 100
  95	 102
  95	 105
  95	 108
  95	 109
  95	 112
  95	 116
  95	 117
  95	 118
  95	 119
  96	  97
  96	  98
  96	  99
  96	 100
  96	 103
  96	 105
  96	 108
  96	 109
  96	 111
  96	 112
  96	 113
  96	 117
  96	 119
  97	  98
  97	 100
  97	 106
  97	 108
  97	 110
  97	 114
  98	 102
  98	 103
  98	 104
  98	 107
  98	 108
  98	 110
  98	 114
  98	 115
  98	 116
  98	 117
  99	 102
  99	 103
  99	 105
  99	 109
  99	 111
  99	 116
  99	 117
  99	 118
 100	 103
 100	 104
 100	 105
 100	 106
 100	 109
 100	 112
 100	 114
 100	 117
 100	 118
 101	 102
 101	 103
 101	 108
 101	 115
 101	 117
 101	 118
 102	 103
 102	 104
 102	 106
 102	 115
 102	 116
 103	 117
 103	 119
 104	 115
 104	 117
 104	 118
 105	 108
 105	 110
 105	 112
 105	 115
 105	 116
 105	 117
 106	 107
 106	 116
 106	 118
 107	 108
 107	 112
 107	 113
 107	 114
 107	 119
 108	 111
 108	 113
 108	 114
 108	 115
 108	 116
 109	 112
 109	 116
 109	 118
 110	 117
 110	 118
 111	 113
 111	 115
 111	 117
 111	 118
 112	 113
 113	 114
 113	 116
 113	 118
 114	 115
 114	 117
 114	 118
 115	 119
 117	 119
 118	 119
;
